p tw 234 260
1 2
2 113
3 14
4 5
5 6
6 7
7 8
8 164
9 10
10 11
10 24
11 12
12 13
13 15
14 25
15 16
15 18
16 17
17 18
18 19
19 20
20 21
21 22
22 23
23 24
24 26
25 36
26 27
27 28
28 29
29 30
30 31
31 32
32 33
32 75
33 34
34 35
35 37
36 47
37 38
38 39
38 51
39 40
39 42
40 41
41 46
42 43
43 44
44 45
45 46
46 48
47 58
48 49
49 50
50 51
50 33
51 52
52 53
52 72
53 54
54 55
55 56
56 57
56 60
57 59
58 69
58 91
59 60
60 61
61 62
62 63
63 64
64 65
65 66
66 67
67 68
68 70
68 72
69 80
70 71
71 72
72 73
73 74
74 75
75 76
76 77
77 78
78 79
79 81
80 114
81 82
82 83
83 84
83 148
84 85
85 86
86 87
86 89
87 88
88 94
89 90
90 92
91 102
92 93
93 94
94 95
95 96
96 97
96 148
97 98
98 99
99 100
100 101
101 103
101 105
102 114
103 104
104 109
105 106
106 107
107 108
108 109
109 110
110 111
111 112
112 115
113 158
114 125
115 116
115 118
116 117
117 118
117 97
118 119
119 120
120 121
121 122
122 123
122 126
123 124
124 126
125 136
126 127
127 128
128 129
129 130
130 131
130 133
131 132
132 133
133 134
134 135
135 137
136 147
137 138
138 139
139 140
140 141
141 142
141 144
142 143
143 144
144 145
145 146
146 148
147 152
148 149
149 150
150 151
152 153
153 154
154 155
155 156
156 157
157 159
158 169
159 160
160 161
161 162
162 163
163 164
164 165
165 166
166 167
167 168
167 9
168 170
169 180
170 171
171 172
172 173
172 175
173 174
174 186
175 176
176 177
176 179
177 178
178 184
179 181
180 191
181 182
182 183
183 184
184 185
185 186
186 187
187 188
188 189
189 190
190 192
191 202
192 193
192 195
193 194
194 206
195 196
196 197
196 199
197 198
198 204
199 200
200 201
201 203
202 213
203 204
204 205
205 206
206 207
207 208
208 209
209 210
210 211
211 212
212 214
212 217
213 224
214 215
215 216
216 226
217 218
218 219
219 220
219 223
220 221
221 222
222 226
223 225
224 3
225 226
226 227
227 228
228 229
229 230
230 231
230 233
231 232
232 233
233 234
234 4
